# Node Net
1740   1
3572   1
2461   1
1261   1
1921   2
3584   2
3576   2
3571   2
1200   3
3421   3
3546   3
420   3
3592   4
 14   4
 22   4
721   4
 32   5
  7   5
 59   5
 43   5
2521   6
2701   6
181   6
2940   7
  3   7
2820   8
3540   8
3585   9
 27   9
2941  10
3596  10
